1181.87 0
0 94 97 21 32 35 36 34 28 8 12 24 27 30 31 33 14 9 4 3 5 113 111 0
0 119 120 107 67 71 74 78 80 37 25 22 19 16 17 114 0
0 87 95 89 112 84 108 7 10 11 13 15 1 2 6 82 0
0 88 92 118 20 23 26 29 47 65 62 64 66 63 60 56 58 55 53 0
0 104 103 69 70 72 75 79 61 57 54 52 98 99 101 102 0
0 93 96 100 116 110 73 76 77 68 59 45 43 40 81 83 117 106 105 0
0 86 85 91 90 18 109 39 42 48 51 50 49 46 44 41 38 115 0